
Log started (V12.6.3.0) Tue Jun  6 12:38:50 2017

New value for default parallel thread count: 1

Problem '/tmp/tmpJE6nJ8.pyomo.lp' read.
Read time = 0.00 sec. (0.03 ticks)

Problem name         : /tmp/tmpJE6nJ8.pyomo.lp
Objective sense      : Minimize
Variables            :     362  [Nneg: 331,  Binary: 30,  General Integer: 1]
Objective nonzeros   :       1
Linear constraints   :     133  [Less: 30,  Equal: 103]
  Nonzeros           :     987
  RHS nonzeros       :      37

Variables            : Min LB: 0.000000         Max UB: 1.000000       
Objective nonzeros   : Min   : 1.000000         Max   : 1.000000       
Linear constraints   :
  Nonzeros           : Min   : 1.000000         Max   : 10900.00       
  RHS nonzeros       : Min   : 1.000000         Max   : 18450.00       
Tried aggregator 2 times.
MIP Presolve eliminated 53 rows and 219 columns.
MIP Presolve added 1 rows and 1 columns.
Aggregator did 30 substitutions.
Reduced MIP has 51 rows, 114 columns, and 318 nonzeros.
Reduced MIP has 21 binaries, 1 generals, 0 SOSs, and 0 indicators.
Presolve time = 0.00 sec. (0.46 ticks)
Found incumbent of value 25.000000 after 0.00 sec. (0.71 ticks)
Probing fixed 0 vars, tightened 1 bounds.
Probing time = 0.00 sec. (0.03 ticks)
Tried aggregator 1 time.
Reduced MIP has 51 rows, 114 columns, and 318 nonzeros.
Reduced MIP has 21 binaries, 1 generals, 0 SOSs, and 0 indicators.
Presolve time = 0.00 sec. (0.14 ticks)
Probing time = 0.00 sec. (0.03 ticks)
Clique table members: 4.
MIP emphasis: balance optimality and feasibility.
MIP search method: dynamic search.
Parallel mode: none, using 1 thread.
Root relaxation solution time = 0.00 sec. (0.47 ticks)

        Nodes                                         Cuts/
   Node  Left     Objective  IInf  Best Integer    Best Bound    ItCnt     Gap

*     0+    0                           25.0000        5.0000            80.00%
      0     0       10.1818     9       25.0000       10.1818       83   59.27%
*     0+    0                           14.0000       10.1818            27.27%
      0     0       11.4492    11       14.0000      Cuts: 43      177   18.22%
*     0+    0                           13.0000       11.4492            11.93%
      0     0        cutoff             13.0000                    199    0.00%
Elapsed time = 0.01 sec. (4.11 ticks, tree = 0.01 MB, solutions = 3)

GUB cover cuts applied:  1
Clique cuts applied:  1
Cover cuts applied:  5
Implied bound cuts applied:  11
Flow cuts applied:  5
Mixed integer rounding cuts applied:  8
Gomory fractional cuts applied:  4

Root node processing (before b&c):
  Real time             =    0.01 sec. (4.13 ticks)
Sequential b&c:
  Real time             =    0.00 sec. (0.00 ticks)
                          ------------
Total (root+branch&cut) =    0.01 sec. (4.13 ticks)

Solution pool: 3 solutions saved.

MIP - Integer optimal solution:  Objective =  1.3000000000e+01
Solution time =    0.01 sec.  Iterations = 199  Nodes = 0
Deterministic time = 4.13 ticks  (366.99 ticks/sec)


Incumbent solution written to file '/tmp/tmpHgeCCc.cplex.sol'.

Log started (V12.6.3.0) Mon Jul 24 16:43:30 2017

New value for default parallel thread count: 1

Problem '/tmp/tmpyB6ALO.pyomo.lp' read.
Read time = 0.00 sec. (0.03 ticks)

Problem name         : /tmp/tmpyB6ALO.pyomo.lp
Objective sense      : Minimize
Variables            :     362  [Nneg: 331,  Binary: 30,  General Integer: 1]
Objective nonzeros   :       1
Linear constraints   :     133  [Less: 30,  Equal: 103]
  Nonzeros           :     987
  RHS nonzeros       :      37

Variables            : Min LB: 0.000000         Max UB: 1.000000       
Objective nonzeros   : Min   : 1.000000         Max   : 1.000000       
Linear constraints   :
  Nonzeros           : Min   : 1.000000         Max   : 10900.00       
  RHS nonzeros       : Min   : 1.000000         Max   : 18450.00       
Tried aggregator 2 times.
MIP Presolve eliminated 53 rows and 219 columns.
MIP Presolve added 1 rows and 1 columns.
Aggregator did 30 substitutions.
Reduced MIP has 51 rows, 114 columns, and 318 nonzeros.
Reduced MIP has 21 binaries, 1 generals, 0 SOSs, and 0 indicators.
Presolve time = 0.00 sec. (0.46 ticks)
Found incumbent of value 25.000000 after 0.00 sec. (0.71 ticks)
Probing fixed 0 vars, tightened 1 bounds.
Probing time = 0.00 sec. (0.03 ticks)
Tried aggregator 1 time.
Reduced MIP has 51 rows, 114 columns, and 318 nonzeros.
Reduced MIP has 21 binaries, 1 generals, 0 SOSs, and 0 indicators.
Presolve time = 0.00 sec. (0.14 ticks)
Probing time = 0.00 sec. (0.03 ticks)
Clique table members: 4.
MIP emphasis: balance optimality and feasibility.
MIP search method: dynamic search.
Parallel mode: none, using 1 thread.
Root relaxation solution time = 0.00 sec. (0.47 ticks)

        Nodes                                         Cuts/
   Node  Left     Objective  IInf  Best Integer    Best Bound    ItCnt     Gap

*     0+    0                           25.0000        5.0000            80.00%
      0     0       10.1818     9       25.0000       10.1818       83   59.27%
*     0+    0                           14.0000       10.1818            27.27%
      0     0       11.4492    11       14.0000      Cuts: 43      177   18.22%
*     0+    0                           13.0000       11.4492            11.93%
      0     0        cutoff             13.0000                    199    0.00%
Elapsed time = 0.01 sec. (4.11 ticks, tree = 0.01 MB, solutions = 3)

GUB cover cuts applied:  1
Clique cuts applied:  1
Cover cuts applied:  5
Implied bound cuts applied:  11
Flow cuts applied:  5
Mixed integer rounding cuts applied:  8
Gomory fractional cuts applied:  4

Root node processing (before b&c):
  Real time             =    0.01 sec. (4.13 ticks)
Sequential b&c:
  Real time             =    0.00 sec. (0.00 ticks)
                          ------------
Total (root+branch&cut) =    0.01 sec. (4.13 ticks)

Solution pool: 3 solutions saved.

MIP - Integer optimal solution:  Objective =  1.3000000000e+01
Solution time =    0.01 sec.  Iterations = 199  Nodes = 0
Deterministic time = 4.13 ticks  (677.40 ticks/sec)


Incumbent solution written to file '/tmp/tmp5qQx9X.cplex.sol'.

Log started (V12.6.3.0) Mon Jul 24 16:45:08 2017

New value for default parallel thread count: 1

Problem '/tmp/tmpSMCwR2.pyomo.lp' read.
Read time = 0.00 sec. (0.03 ticks)

Problem name         : /tmp/tmpSMCwR2.pyomo.lp
Objective sense      : Minimize
Variables            :     362  [Nneg: 331,  Binary: 30,  General Integer: 1]
Objective nonzeros   :       1
Linear constraints   :     133  [Less: 30,  Equal: 103]
  Nonzeros           :     987
  RHS nonzeros       :      37

Variables            : Min LB: 0.000000         Max UB: 1.000000       
Objective nonzeros   : Min   : 1.000000         Max   : 1.000000       
Linear constraints   :
  Nonzeros           : Min   : 1.000000         Max   : 10900.00       
  RHS nonzeros       : Min   : 1.000000         Max   : 18450.00       
Tried aggregator 2 times.
MIP Presolve eliminated 53 rows and 219 columns.
MIP Presolve added 1 rows and 1 columns.
Aggregator did 30 substitutions.
Reduced MIP has 51 rows, 114 columns, and 318 nonzeros.
Reduced MIP has 21 binaries, 1 generals, 0 SOSs, and 0 indicators.
Presolve time = 0.00 sec. (0.46 ticks)
Found incumbent of value 25.000000 after 0.00 sec. (0.71 ticks)
Probing fixed 0 vars, tightened 1 bounds.
Probing time = 0.00 sec. (0.03 ticks)
Tried aggregator 1 time.
Reduced MIP has 51 rows, 114 columns, and 318 nonzeros.
Reduced MIP has 21 binaries, 1 generals, 0 SOSs, and 0 indicators.
Presolve time = 0.00 sec. (0.14 ticks)
Probing time = 0.00 sec. (0.03 ticks)
Clique table members: 4.
MIP emphasis: balance optimality and feasibility.
MIP search method: dynamic search.
Parallel mode: none, using 1 thread.
Root relaxation solution time = 0.00 sec. (0.47 ticks)

        Nodes                                         Cuts/
   Node  Left     Objective  IInf  Best Integer    Best Bound    ItCnt     Gap

*     0+    0                           25.0000        5.0000            80.00%
      0     0       10.1818     9       25.0000       10.1818       83   59.27%
*     0+    0                           14.0000       10.1818            27.27%
      0     0       11.4492    11       14.0000      Cuts: 43      177   18.22%
*     0+    0                           13.0000       11.4492            11.93%
      0     0        cutoff             13.0000                    199    0.00%
Elapsed time = 0.01 sec. (4.11 ticks, tree = 0.01 MB, solutions = 3)

GUB cover cuts applied:  1
Clique cuts applied:  1
Cover cuts applied:  5
Implied bound cuts applied:  11
Flow cuts applied:  5
Mixed integer rounding cuts applied:  8
Gomory fractional cuts applied:  4

Root node processing (before b&c):
  Real time             =    0.01 sec. (4.13 ticks)
Sequential b&c:
  Real time             =    0.00 sec. (0.00 ticks)
                          ------------
Total (root+branch&cut) =    0.01 sec. (4.13 ticks)

Solution pool: 3 solutions saved.

MIP - Integer optimal solution:  Objective =  1.3000000000e+01
Solution time =    0.01 sec.  Iterations = 199  Nodes = 0
Deterministic time = 4.13 ticks  (691.46 ticks/sec)


Incumbent solution written to file '/tmp/tmp1QmAF8.cplex.sol'.

Log started (V12.6.3.0) Mon Jul 24 16:57:52 2017

New value for default parallel thread count: 1

Problem '/tmp/tmppyo1lk.pyomo.lp' read.
Read time = 0.00 sec. (0.03 ticks)

Problem name         : /tmp/tmppyo1lk.pyomo.lp
Objective sense      : Minimize
Variables            :     362  [Nneg: 331,  Binary: 30,  General Integer: 1]
Objective nonzeros   :       1
Linear constraints   :     133  [Less: 30,  Equal: 103]
  Nonzeros           :     987
  RHS nonzeros       :      37

Variables            : Min LB: 0.000000         Max UB: 1.000000       
Objective nonzeros   : Min   : 1.000000         Max   : 1.000000       
Linear constraints   :
  Nonzeros           : Min   : 1.000000         Max   : 10900.00       
  RHS nonzeros       : Min   : 1.000000         Max   : 18450.00       
Tried aggregator 2 times.
MIP Presolve eliminated 53 rows and 219 columns.
MIP Presolve added 1 rows and 1 columns.
Aggregator did 30 substitutions.
Reduced MIP has 51 rows, 114 columns, and 318 nonzeros.
Reduced MIP has 21 binaries, 1 generals, 0 SOSs, and 0 indicators.
Presolve time = 0.00 sec. (0.46 ticks)
Found incumbent of value 25.000000 after 0.00 sec. (0.71 ticks)
Probing fixed 0 vars, tightened 1 bounds.
Probing time = 0.00 sec. (0.03 ticks)
Tried aggregator 1 time.
Reduced MIP has 51 rows, 114 columns, and 318 nonzeros.
Reduced MIP has 21 binaries, 1 generals, 0 SOSs, and 0 indicators.
Presolve time = 0.00 sec. (0.14 ticks)
Probing time = 0.00 sec. (0.03 ticks)
Clique table members: 4.
MIP emphasis: balance optimality and feasibility.
MIP search method: dynamic search.
Parallel mode: none, using 1 thread.
Root relaxation solution time = 0.00 sec. (0.47 ticks)

        Nodes                                         Cuts/
   Node  Left     Objective  IInf  Best Integer    Best Bound    ItCnt     Gap

*     0+    0                           25.0000        5.0000            80.00%
      0     0       10.1818     9       25.0000       10.1818       83   59.27%
*     0+    0                           14.0000       10.1818            27.27%
      0     0       11.4492    11       14.0000      Cuts: 43      177   18.22%
*     0+    0                           13.0000       11.4492            11.93%
      0     0        cutoff             13.0000                    199    0.00%
Elapsed time = 0.01 sec. (4.11 ticks, tree = 0.01 MB, solutions = 3)

GUB cover cuts applied:  1
Clique cuts applied:  1
Cover cuts applied:  5
Implied bound cuts applied:  11
Flow cuts applied:  5
Mixed integer rounding cuts applied:  8
Gomory fractional cuts applied:  4

Root node processing (before b&c):
  Real time             =    0.01 sec. (4.13 ticks)
Sequential b&c:
  Real time             =    0.00 sec. (0.00 ticks)
                          ------------
Total (root+branch&cut) =    0.01 sec. (4.13 ticks)

Solution pool: 3 solutions saved.

MIP - Integer optimal solution:  Objective =  1.3000000000e+01
Solution time =    0.01 sec.  Iterations = 199  Nodes = 0
Deterministic time = 4.13 ticks  (675.42 ticks/sec)


Incumbent solution written to file '/tmp/tmp4PIzDi.cplex.sol'.

Log started (V12.6.3.0) Wed Jul 26 11:54:42 2017

New value for default parallel thread count: 1

Problem '/tmp/tmp61togD.pyomo.lp' read.
Read time = 0.00 sec. (0.03 ticks)

Problem name         : /tmp/tmp61togD.pyomo.lp
Objective sense      : Minimize
Variables            :     362  [Nneg: 331,  Binary: 30,  General Integer: 1]
Objective nonzeros   :       1
Linear constraints   :     133  [Less: 30,  Equal: 103]
  Nonzeros           :     987
  RHS nonzeros       :      37

Variables            : Min LB: 0.000000         Max UB: 1.000000       
Objective nonzeros   : Min   : 1.000000         Max   : 1.000000       
Linear constraints   :
  Nonzeros           : Min   : 1.000000         Max   : 10900.00       
  RHS nonzeros       : Min   : 1.000000         Max   : 18450.00       
Tried aggregator 2 times.
MIP Presolve eliminated 53 rows and 219 columns.
MIP Presolve added 1 rows and 1 columns.
Aggregator did 30 substitutions.
Reduced MIP has 51 rows, 114 columns, and 318 nonzeros.
Reduced MIP has 21 binaries, 1 generals, 0 SOSs, and 0 indicators.
Presolve time = 0.00 sec. (0.46 ticks)
Found incumbent of value 25.000000 after 0.00 sec. (0.71 ticks)
Probing fixed 0 vars, tightened 1 bounds.
Probing time = 0.00 sec. (0.03 ticks)
Tried aggregator 1 time.
Reduced MIP has 51 rows, 114 columns, and 318 nonzeros.
Reduced MIP has 21 binaries, 1 generals, 0 SOSs, and 0 indicators.
Presolve time = 0.00 sec. (0.14 ticks)
Probing time = 0.00 sec. (0.03 ticks)
Clique table members: 4.
MIP emphasis: balance optimality and feasibility.
MIP search method: dynamic search.
Parallel mode: none, using 1 thread.
Root relaxation solution time = 0.00 sec. (0.47 ticks)

        Nodes                                         Cuts/
   Node  Left     Objective  IInf  Best Integer    Best Bound    ItCnt     Gap

*     0+    0                           25.0000        5.0000            80.00%
      0     0       10.1818     9       25.0000       10.1818       83   59.27%
*     0+    0                           14.0000       10.1818            27.27%
      0     0       11.4492    11       14.0000      Cuts: 43      177   18.22%
*     0+    0                           13.0000       11.4492            11.93%
      0     0        cutoff             13.0000                    199    0.00%
Elapsed time = 0.02 sec. (4.11 ticks, tree = 0.01 MB, solutions = 3)

GUB cover cuts applied:  1
Clique cuts applied:  1
Cover cuts applied:  5
Implied bound cuts applied:  11
Flow cuts applied:  5
Mixed integer rounding cuts applied:  8
Gomory fractional cuts applied:  4

Root node processing (before b&c):
  Real time             =    0.02 sec. (4.13 ticks)
Sequential b&c:
  Real time             =    0.00 sec. (0.00 ticks)
                          ------------
Total (root+branch&cut) =    0.02 sec. (4.13 ticks)

Solution pool: 3 solutions saved.

MIP - Integer optimal solution:  Objective =  1.3000000000e+01
Solution time =    0.02 sec.  Iterations = 199  Nodes = 0
Deterministic time = 4.13 ticks  (230.78 ticks/sec)


Incumbent solution written to file '/tmp/tmpaY1_sP.cplex.sol'.
